
  32    4
  10   10   10   10

   0   0   0   0   0   1 2 
  10   1   0   1   1   1 3 
   8   3   1   0   1   1 4 
   8   5   2   3   0   1 5 
  10   4   4   0   3   1 6 
  10   2   0   5   4   2 13 7 
   1   4   0   3   3   2 31 8 
   6   2   0   5   6   1 9 
   3   3   5   0   6   1 10 
   4   0   3   4   6   1 11 
   8   5   6   5   0   1 12 
   3   0   3   4   6   1 14 
   5   5   5   0   3   1 15 
   9   2   3   2   0   1 16 
  10   5   3   7   0   1 16 
   8   7   4   0   5   1 17 
   4   0   7   3   4   1 18 
   4   6   0   3   4   3 25 23 19 
   4   4   8   6   0   1 20 
  10   2   3   3   0   2 30 21 
   3   0   5   4   2   1 22 
   2   6   0   5   4   1 24 
   3   3   2   4   0   1 24 
   2   6   2   0   2   1 26 
   8   5   0   5   5   1 26 
  10   3   5   0   3   1 27 
   2   0   4   4   4   1 28 
   8   6   4   0   6   1 29 
   2   3   0   4   5   1 32
   5   2   5   0   5   1 32
   8   6   4   0   4   1 32
   0   0   0   0   0   0 
